12
benzene, idealised D6h geometry: C-C 1.39 A, C-H 1.08 A (STEMKit sample)
C      1.390000     0.000000     0.000000
C      0.695000     1.203775     0.000000
C     -0.695000     1.203775     0.000000
C     -1.390000     0.000000     0.000000
C     -0.695000    -1.203775     0.000000
C      0.695000    -1.203775     0.000000
H      2.470000     0.000000     0.000000
H      1.235000     2.139083     0.000000
H     -1.235000     2.139083     0.000000
H     -2.470000     0.000000     0.000000
H     -1.235000    -2.139083     0.000000
H      1.235000    -2.139083     0.000000
